*SENSE:Maximize
NAME          MODEL
ROWS
 N  OBJ
 L  C0000000
 G  C0000001
 L  C0000002
 L  C0000003
 L  C0000004
 L  C0000005
 L  C0000006
 L  C0000007
 L  C0000008
 L  C0000009
 L  C0000010
 L  C0000011
COLUMNS
    X0000000  C0000010   1.000000000000e+00
    X0000000  C0000011   1.000000000000e+00
    X0000000  C0000009   1.000000000000e+00
    X0000000  C0000008   1.000000000000e+00
    X0000000  C0000001   8.255940000000e+05
    X0000000  C0000000   3.827450000000e+05
    X0000000  C0000003   1.000000000000e+00
    X0000000  C0000002   1.000000000000e+00
    X0000000  C0000005   1.000000000000e+00
    X0000000  C0000004   1.000000000000e+00
    X0000000  C0000007   2.000000000000e+00
    X0000000  C0000006   2.000000000000e+00
    X0000000  OBJ        1.000000000000e+00
    X0000001  C0000010   1.000000000000e+00
    X0000001  C0000011   1.000000000000e+00
    X0000001  C0000009   2.000000000000e+00
    X0000001  C0000008   2.000000000000e+00
    X0000001  C0000001   1.677009000000e+06
    X0000001  C0000000   7.996010000000e+05
    X0000001  C0000003   1.000000000000e+00
    X0000001  C0000002   1.000000000000e+00
    X0000001  C0000005   1.000000000000e+00
    X0000001  C0000004   1.000000000000e+00
    X0000001  C0000007   1.000000000000e+00
    X0000001  C0000006   1.000000000000e+00
    X0000001  OBJ        1.000000000000e+00
    X0000002  C0000010   1.000000000000e+00
    X0000002  C0000011   1.000000000000e+00
    X0000002  C0000009   1.000000000000e+00
    X0000002  C0000008   1.000000000000e+00
    X0000002  C0000001   1.844992000000e+06
    X0000002  C0000000   8.536650000000e+05
    X0000002  C0000003   1.000000000000e+00
    X0000002  C0000002   1.000000000000e+00
    X0000002  C0000005   1.000000000000e+00
    X0000002  C0000004   1.000000000000e+00
    X0000002  C0000007   1.000000000000e+00
    X0000002  C0000006   1.000000000000e+00
    X0000002  OBJ        1.000000000000e+00
    X0000003  C0000010   1.000000000000e+00
    X0000003  C0000011   1.000000000000e+00
    X0000003  C0000009   1.000000000000e+00
    X0000003  C0000008   1.000000000000e+00
    X0000003  C0000001   1.049289000000e+06
    X0000003  C0000000   5.518300000000e+05
    X0000003  C0000003   1.000000000000e+00
    X0000003  C0000002   1.000000000000e+00
    X0000003  C0000005   1.000000000000e+00
    X0000003  C0000004   1.000000000000e+00
    X0000003  C0000007   1.000000000000e+00
    X0000003  C0000006   1.000000000000e+00
    X0000003  OBJ        1.000000000000e+00
    X0000004  C0000010   1.000000000000e+00
    X0000004  C0000011   1.000000000000e+00
    X0000004  C0000009   1.000000000000e+00
    X0000004  C0000008   1.000000000000e+00
    X0000004  C0000001   1.252836000000e+06
    X0000004  C0000000   6.108560000000e+05
    X0000004  C0000003   1.000000000000e+00
    X0000004  C0000002   1.000000000000e+00
    X0000004  C0000005   1.000000000000e+00
    X0000004  C0000004   1.000000000000e+00
    X0000004  C0000007   1.000000000000e+00
    X0000004  C0000006   1.000000000000e+00
    X0000004  OBJ        1.000000000000e+00
    X0000005  C0000010   1.000000000000e+00
    X0000005  C0000011   1.000000000000e+00
    X0000005  C0000009   1.000000000000e+00
    X0000005  C0000008   1.000000000000e+00
    X0000005  C0000001   1.319836000000e+06
    X0000005  C0000000   6.707020000000e+05
    X0000005  C0000003   1.000000000000e+00
    X0000005  C0000002   1.000000000000e+00
    X0000005  C0000005   1.000000000000e+00
    X0000005  C0000004   1.000000000000e+00
    X0000005  C0000007   1.000000000000e+00
    X0000005  C0000006   1.000000000000e+00
    X0000005  OBJ        1.000000000000e+00
    X0000006  C0000010   1.000000000000e+00
